Route 1: 0 71 27 100 25 94 23 84 46 99 0
Route 2: 0 16 51 37 96 91 97 40 92 88 0
Route 3: 0 44 17 28 83 63 58 0
Route 4: 0 8 39 7 86 33 2 69 0
Route 5: 0 87 6 10 52 20 35 41 15 67 80 0
Route 6: 0 1 47 48 19 9 49 60 95 11 21 0
Route 7: 0 34 4 38 55 43 73 26 31 76 0
Route 8: 0 50 64 93 12 53 98 0
Route 9: 0 57 36 42 78 61 29 77 5 54 0
Route 10: 0 66 24 13 56 85 45 74 22 0
Route 11: 0 65 75 90 70 82 32 89 62 30 81 0
Route 12: 0 79 18 72 14 3 59 68 0
